benchmarks_vrp/CMT2/fixed_c_size/CMT2_2.vrp
NAME: CMT2_2
TYPE: CVRP
COMMENT: 835.26 - Cluster Nr.2
DIMENSION: 16
CAPACITY: 140
EDGE_WEIGHT_TYPE: EUC_2D
NODE_COORD_TYPE: TWOD_COORDS
NODE_COORD_SECTION: 
6 40 40
5 62 57
15 55 45
9 55 34
3 50 50
16 45 42
10 67 41
8 54 38
14 41 46
2 70 64
7 55 57
11 51 42
4 62 48
13 62 35
1 55 50
12 50 40
DEPOT_SECTION: 
6
-1
DEMAND_SECTION: 
12 19
5 31
3 15
10 16
1 10
2 24
8 19
15 16
11 27
7 22
16 30
6 0
9 17
4 15
13 12
14 18
EOF
